p cnf 854
-14 -266
-15 -269
-16 -272
-17 -275
-18 -278
-19 -281
-20 -284
-21 -287
-22 -290
-23 -293
-24 -296
-25 -299
-26 -302
-27 303
-28 304
-29 305
-30 306
-31 307
-32 308
-33 -15
-33 -16
15 16 33
-34 -17
-34 -18
17 18 34
-35 -19
-35 -20
19 20 35
-36 -21
-36 -22
21 22 36
-37 -23
-37 -24
23 24 37
-38 -25
-38 -26
25 26 38
-39 -27
-39 -28
27 28 39
-40 -29
-40 -30
29 30 40
-41 -31
-41 -32
31 32 41
-42 33
-42 34
-33 -34 42
-43 35
-43 36
-35 -36 43
-44 37
-44 38
-37 -38 44
-45 39
-45 40
-39 -40 45
-46 42
-46 43
-42 -43 46
-47 44
-47 45
-44 -45 47
-48 46
-48 47
-46 -47 48
-49 41
-49 48
-41 -48 49
-50 -14
-50 15
14 -15 50
-51 14
-51 -15
-14 15 51
-52 -50
-52 -51
50 51 52
-53 14
-53 15
-14 -15 53
-54 -14
-54 -52
14 52 54
-55 14
-55 52
-14 -52 55
-56 -54
-56 -55
54 55 56
-57 14
-57 -52
-14 52 57
-58 -53
-58 -57
53 57 58
-59 -15
-59 16
15 -16 59
-60 15
-60 -16
-15 16 60
-61 -59
-61 -60
59 60 61
-62 15
-62 16
-15 -16 62
-63 58
-63 -61
-58 61 63
-64 -58
-64 61
58 -61 64
-65 -63
-65 -64
63 64 65
-66 -58
-66 -61
58 61 66
-67 -62
-67 -66
62 66 67
-68 -16
-68 17
16 -17 68
-69 16
-69 -17
-16 17 69
-70 -68
-70 -69
68 69 70
-71 16
-71 17
-16 -17 71
-72 67
-72 -70
-67 70 72
-73 -67
-73 70
67 -70 73
-74 -72
-74 -73
72 73 74
-75 -67
-75 -70
67 70 75
-76 -71
-76 -75
71 75 76
-77 -17
-77 18
17 -18 77
-78 17
-78 -18
-17 18 78
-79 -77
-79 -78
77 78 79
-80 17
-80 18
-17 -18 80
-81 76
-81 -79
-76 79 81
-82 -76
-82 79
76 -79 82
-83 -81
-83 -82
81 82 83
-84 -76
-84 -79
76 79 84
-85 -80
-85 -84
80 84 85
-86 -18
-86 19
18 -19 86
-87 18
-87 -19
-18 19 87
-88 -86
-88 -87
86 87 88
-89 18
-89 19
-18 -19 89
-90 85
-90 -88
-85 88 90
-91 -85
-91 88
85 -88 91
-92 -90
-92 -91
90 91 92
-93 -85
-93 -88
85 88 93
-94 -89
-94 -93
89 93 94
-95 -19
-95 20
19 -20 95
-96 19
-96 -20
-19 20 96
-97 -95
-97 -96
95 96 97
-98 19
-98 20
-19 -20 98
-99 94
-99 -97
-94 97 99
-100 -94
-100 97
94 -97 100
-101 -99
-101 -100
99 100 101
-102 -94
-102 -97
94 97 102
-103 -98
-103 -102
98 102 103
-104 -20
-104 21
20 -21 104
-105 20
-105 -21
-20 21 105
-106 -104
-106 -105
104 105 106
-107 20
-107 21
-20 -21 107
-108 103
-108 -106
-103 106 108
-109 -103
-109 106
103 -106 109
-110 -108
-110 -109
108 109 110
-111 -103
-111 -106
103 106 111
-112 -107
-112 -111
107 111 112
-113 -21
-113 22
21 -22 113
-114 21
-114 -22
-21 22 114
-115 -113
-115 -114
113 114 115
-116 21
-116 22
-21 -22 116
-117 112
-117 -115
-112 115 117
-118 -112
-118 115
112 -115 118
-119 -117
-119 -118
117 118 119
-120 -112
-120 -115
112 115 120
-121 -116
-121 -120
116 120 121
-122 -22
-122 23
22 -23 122
-123 22
-123 -23
-22 23 123
-124 -122
-124 -123
122 123 124
-125 22
-125 23
-22 -23 125
-126 121
-126 -124
-121 124 126
-127 -121
-127 124
121 -124 127
-128 -126
-128 -127
126 127 128
-129 -121
-129 -124
121 124 129
-130 -125
-130 -129
125 129 130
-131 -23
-131 24
23 -24 131
-132 23
-132 -24
-23 24 132
-133 -131
-133 -132
131 132 133
-134 23
-134 24
-23 -24 134
-135 130
-135 -133
-130 133 135
-136 -130
-136 133
130 -133 136
-137 -135
-137 -136
135 136 137
-138 -130
-138 -133
130 133 138
-139 -134
-139 -138
134 138 139
-140 -24
-140 25
24 -25 140
-141 24
-141 -25
-24 25 141
-142 -140
-142 -141
140 141 142
-143 24
-143 25
-24 -25 143
-144 139
-144 -142
-139 142 144
-145 -139
-145 142
139 -142 145
-146 -144
-146 -145
144 145 146
-147 -139
-147 -142
139 142 147
-148 -143
-148 -147
143 147 148
-149 -25
-149 26
25 -26 149
-150 25
-150 -26
-25 26 150
-151 -149
-151 -150
149 150 151
-152 25
-152 26
-25 -26 152
-153 148
-153 -151
-148 151 153
-154 -148
-154 151
148 -151 154
-155 -153
-155 -154
153 154 155
-156 -148
-156 -151
148 151 156
-157 -152
-157 -156
152 156 157
-158 -26
-158 27
26 -27 158
-159 26
-159 -27
-26 27 159
-160 -158
-160 -159
158 159 160
-161 26
-161 27
-26 -27 161
-162 157
-162 -160
-157 160 162
-163 -157
-163 160
157 -160 163
-164 -162
-164 -163
162 163 164
-165 -157
-165 -160
157 160 165
-166 -161
-166 -165
161 165 166
-167 -27
-167 28
27 -28 167
-168 27
-168 -28
-27 28 168
-169 -167
-169 -168
167 168 169
-170 27
-170 28
-27 -28 170
-171 166
-171 -169
-166 169 171
-172 -166
-172 169
166 -169 172
-173 -171
-173 -172
171 172 173
-174 -166
-174 -169
166 169 174
-175 -170
-175 -174
170 174 175
-176 -28
-176 29
28 -29 176
-177 28
-177 -29
-28 29 177
-178 -176
-178 -177
176 177 178
-179 28
-179 29
-28 -29 179
-180 175
-180 -178
-175 178 180
-181 -175
-181 178
175 -178 181
-182 -180
-182 -181
180 181 182
-183 -175
-183 -178
175 178 183
-184 -179
-184 -183
179 183 184
-185 -29
-185 30
29 -30 185
-186 29
-186 -30
-29 30 186
-187 -185
-187 -186
185 186 187
-188 29
-188 30
-29 -30 188
-189 184
-189 -187
-184 187 189
-190 -184
-190 187
184 -187 190
-191 -189
-191 -190
189 190 191
-192 -184
-192 -187
184 187 192
-193 -188
-193 -192
188 192 193
-194 -30
-194 31
30 -31 194
-195 30
-195 -31
-30 31 195
-196 -194
-196 -195
194 195 196
-197 30
-197 31
-30 -31 197
-198 193
-198 -196
-193 196 198
-199 -193
-199 196
193 -196 199
-200 -198
-200 -199
198 199 200
-201 -193
-201 -196
193 196 201
-202 -197
-202 -201
197 201 202
-203 -31
-203 32
31 -32 203
-204 31
-204 -32
-31 32 204
-205 -203
-205 -204
203 204 205
-206 31
-206 32
-31 -32 206
-207 202
-207 -205
-202 205 207
-208 -202
-208 205
202 -205 208
-209 -207
-209 -208
207 208 209
-210 -202
-210 -205
202 205 210
-211 -206
-211 -210
206 210 211
-212 14
-212 -56
-14 56 212
-213 -14
-213 16
14 -16 213
-214 -212
-214 -213
212 213 214
-215 14
-215 -65
-14 65 215
-216 -14
-216 17
14 -17 216
-217 -215
-217 -216
215 216 217
-218 14
-218 -74
-14 74 218
-219 -14
-219 18
14 -18 219
-220 -218
-220 -219
218 219 220
-221 14
-221 -83
-14 83 221
-222 -14
-222 19
14 -19 222
-223 -221
-223 -222
221 222 223
-224 14
-224 -92
-14 92 224
-225 -14
-225 20
14 -20 225
-226 -224
-226 -225
224 225 226
-227 14
-227 -101
-14 101 227
-228 -14
-228 21
14 -21 228
-229 -227
-229 -228
227 228 229
-230 14
-230 -110
-14 110 230
-231 -14
-231 22
14 -22 231
-232 -230
-232 -231
230 231 232
-233 14
-233 -119
-14 119 233
-234 -14
-234 23
14 -23 234
-235 -233
-235 -234
233 234 235
-236 14
-236 -128
-14 128 236
-237 -14
-237 24
14 -24 237
-238 -236
-238 -237
236 237 238
-239 14
-239 -137
-14 137 239
-240 -14
-240 25
14 -25 240
-241 -239
-241 -240
239 240 241
-242 14
-242 -146
-14 146 242
-243 -14
-243 26
14 -26 243
-244 -242
-244 -243
242 243 244
-245 14
-245 -155
-14 155 245
-246 -14
-246 27
14 -27 246
-247 -245
-247 -246
245 246 247
-248 14
-248 -164
-14 164 248
-249 -14
-249 28
14 -28 249
-250 -248
-250 -249
248 249 250
-251 14
-251 -173
-14 173 251
-252 -14
-252 29
14 -29 252
-253 -251
-253 -252
251 252 253
-254 14
-254 -182
-14 182 254
-255 -14
-255 30
14 -30 255
-256 -254
-256 -255
254 255 256
-257 14
-257 -191
-14 191 257
-258 -14
-258 31
14 -31 258
-259 -257
-259 -258
257 258 259
-260 14
-260 -200
-14 200 260
-261 -14
-261 32
14 -32 261
-262 -260
-262 -261
260 261 262
-263 14
-263 -209
-14 209 263
-264 1
-264 49
-1 -49 264
-265 -49
-265 50
49 -50 265
-266 -264
-266 -265
264 265 266
-267 2
-267 49
-2 -49 267
-268 -49
-268 -214
49 214 268
-269 -267
-269 -268
267 268 269
-270 3
-270 49
-3 -49 270
-271 -49
-271 -217
49 217 271
-272 -270
-272 -271
270 271 272
-273 4
-273 49
-4 -49 273
-274 -49
-274 -220
49 220 274
-275 -273
-275 -274
273 274 275
-276 5
-276 49
-5 -49 276
-277 -49
-277 -223
49 223 277
-278 -276
-278 -277
276 277 278
-279 6
-279 49
-6 -49 279
-280 -49
-280 -226
49 226 280
-281 -279
-281 -280
279 280 281
-282 7
-282 49
-7 -49 282
-283 -49
-283 -229
49 229 283
-284 -282
-284 -283
282 283 284
-285 8
-285 49
-8 -49 285
-286 -49
-286 -232
49 232 286
-287 -285
-287 -286
285 286 287
-288 9
-288 49
-9 -49 288
-289 -49
-289 -235
49 235 289
-290 -288
-290 -289
288 289 290
-291 10
-291 49
-10 -49 291
-292 -49
-292 -238
49 238 292
-293 -291
-293 -292
291 292 293
-294 11
-294 49
-11 -49 294
-295 -49
-295 -241
49 241 295
-296 -294
-296 -295
294 295 296
-297 12
-297 49
-12 -49 297
-298 -49
-298 -244
49 244 298
-299 -297
-299 -298
297 298 299
-300 13
-300 49
-13 -49 300
-301 -49
-301 -247
49 247 301
-302 -300
-302 -301
300 301 302
-303 -49
-303 -250
49 250 303
-304 -49
-304 -253
49 253 304
-305 -49
-305 -256
49 256 305
-306 -49
-306 -259
49 259 306
-307 -49
-307 -262
49 262 307
-308 -49
-308 263
49 -263 308
-309 -32
-309 211
32 -211 309
-310 14
-310 -309
-14 309 310
310
